#n B3LYP/6-31G(d) SP geom=connectivity

 Title

0 1
C	0.0000000	0.0000000	0.0000000
H	-1.0835497	0.0000000	0.0000000
C	0.7457436	1.1053383	0.0000000
H	0.2726273	2.0824437	0.0000002
H	1.8290911	1.0746604	-0.0000032
O	0.5011030	-1.2692868	0.0000007
H	1.4727298	-1.2209928	-0.0000169
C	0.3574763	-4.4035366	2.0121853
H	-0.5296248	-4.7514362	2.5651310
H	0.1751210	-4.0869679	0.9728169
O	1.4718353	-4.3708821	2.5190152
C	0.1954449	3.1651315	-3.8129773
H	1.2822638	3.1661247	-3.9934074
H	-0.4007461	3.7848552	-4.5016388
O	-0.3157952	2.5183598	-2.9074063
C	-2.5657633	2.2004833	2.9318964
H	-1.8661281	2.0227830	2.0996318
H	-2.2105110	1.8859612	3.9261939
O	-3.6649382	2.7133708	2.7630778
C	-0.3551116	0.9671556	3.8669897
H	-0.6979305	1.7890030	4.5156600
H	-0.3731991	1.1767053	2.7855473
O	0.0209512	-0.1075454	4.3179147
C	4.1040179	1.6419382	2.3469695
H	5.1110579	1.4118218	2.7299162
H	3.3224588	0.9057836	2.5939462
O	3.8690547	2.6487713	1.6906019
C	-3.2615257	3.0574561	-0.2619973
H	-3.5667015	3.8587319	0.4297804
H	-2.7978730	3.3937401	-1.2031110
O	-3.4266468	1.8721364	-0.0022072
C	3.5694533	-2.8032364	1.6978068
H	3.8546433	-1.7485628	1.8394458
H	4.3490667	-3.4523010	1.2680695
O	2.4599536	-3.2258890	1.9979970
C	0.2714600	4.5098523	-3.1896117
H	-0.1028911	3.9434621	-2.3219744
H	1.0496015	5.2577631	-2.9685209
O	-0.1492698	4.3207211	-4.3240520
C	-1.3875582	-1.9722291	-3.5844498
H	-0.4681902	-1.9206513	-4.1892915
H	-2.0624171	-2.8114245	-3.8169845
O	-1.6423450	-1.1515558	-2.7119145
C	-4.3332868	0.9568469	-1.3131313
H	-3.8181061	1.8658373	-1.6624973
H	-3.7471027	0.0259840	-1.3734511
O	-5.4808866	0.9796216	-0.8862416
C	-2.7411895	-2.9518417	0.7870979
H	-3.7436198	-3.2448654	1.1378141
H	-1.9417769	-2.9956821	1.5439160
O	-2.5296323	-2.6008358	-0.3669286
C	-2.5612923	-2.3916775	-2.2610646
H	-2.6403173	-2.0494698	-3.3052772
H	-1.9780413	-3.3134350	-2.1063480
O	-3.0866785	-1.7878075	-1.3342154
C	4.1022668	0.4853963	2.5425665
H	4.1808378	0.0343830	1.5404962
H	5.0558406	0.6256180	3.0762241
O	3.0267990	0.8092429	3.0306562
C	-1.5977570	1.5821862	3.0562283
H	-2.5987440	2.0416167	3.0301552
H	-0.7567869	2.2829637	3.1804706
O	-1.4310061	0.3732733	2.9539415
C	-4.4897409	1.1462264	-1.6726243
H	-5.3479101	0.6996105	-1.1455463
H	-4.6583562	2.1533395	-2.0862039
O	-3.4198439	0.5622129	-1.7908937
C	-0.6204410	-0.9966374	3.2909095
H	-0.2573932	-1.1553873	4.3188814
H	-0.6942483	0.0548633	2.9705118
O	-0.9218255	-1.9268562	2.5536177
C	2.5913490	2.7760938	2.3487827
H	1.9281120	2.1611979	2.9778703
H	2.1401276	3.6935130	1.9382987
O	3.7525961	2.4608850	2.1209947
C	-4.3266438	-2.0812037	1.3834966
H	-4.8737499	-2.5614014	0.5565646
H	-3.4698261	-1.4558080	1.0860079
O	-4.6493465	-2.2324854	2.5551260
C	-2.3726698	4.3072592	-0.0115953
H	-3.3841504	4.6458281	0.2641023
H	-2.2854880	3.8270141	-0.9992794
O	-1.4095575	4.4548780	0.7302688
C	3.2309643	2.0595003	-3.6299318
H	2.6764858	2.5357867	-4.4542110
H	3.9975604	1.3287041	-3.9332858
O	3.0099554	2.3246855	-2.4549549
C	4.0386456	1.0492191	-2.4473126
H	4.5851712	0.2416022	-2.9599489
H	2.9914927	1.1871843	-2.7606692
O	4.5602748	1.7469905	-1.5866402
C	1.1585762	1.7501071	3.8398120
H	1.4241815	2.0392717	2.8104583
H	0.1527508	1.3190562	3.9673520
O	1.9298610	1.8979411	4.7794947
C	3.8860984	-3.5865415	1.3104397
H	4.3577415	-3.8743557	0.3573147
H	4.5812121	-3.3285329	2.1253044
O	2.6703620	-3.5554776	1.4545193
C	5.3132712	1.7220119	1.3485190
H	4.2482561	1.9054892	1.5625521
H	5.5549120	1.5007456	0.2966603
O	6.1712238	1.7613861	2.2215058
C	-3.5502262	-2.2022115	-0.5157242
H	-3.3545966	-2.1035743	-1.5954144
H	-4.5838734	-1.9898398	-0.1991365
O	-2.6770394	-2.5262783	0.2794263
C	0.7117979	1.5063943	3.4208625
H	-0.2074707	1.4115560	4.0205978
H	1.3316222	0.5979633	3.3550835
O	1.0238256	2.5517741	2.8644825
C	-0.4103522	3.3587216	-3.0063300
H	-0.4799402	2.5072563	-3.7019560
H	-1.3577393	3.8817513	-2.7998024
O	0.6493082	3.7009562	-2.4966889
C	2.2793236	-0.2984739	-3.4174259
H	2.6673756	0.5488958	-2.8299638
H	2.9790899	-1.1373714	-3.5600229
O	1.1458395	-0.3073177	-3.8809714
C	-4.3775058	0.1874440	-0.4506822
H	-5.3165138	0.7636262	-0.4476533
H	-4.0275035	-0.1551818	0.5361622
O	-3.7637627	-0.0559274	-1.4821028
C	-0.9331875	-2.2081565	-2.8784322
H	-0.6173216	-1.1574013	-2.7790670
H	-1.3419058	-2.6694622	-1.9652497
O	-0.8364459	-2.8223645	-3.9334813
C	2.9113019	-4.1019659	-0.2415352
H	3.6407391	-3.2912492	-0.0853590
H	2.3782762	-4.4414335	0.6609067
O	2.7066318	-4.5930071	-1.3445889
C	-4.5747851	-2.1611500	-0.8193847
H	-5.2343250	-1.9401632	-1.6737286
H	-5.0001383	-2.8259730	-0.0507230
O	-3.4443439	-1.6986906	-0.7300923
C	3.4535353	0.4278793	-2.6438976
H	3.4415655	-0.5631395	-2.1627844
H	2.8166292	0.5297921	-3.5370494
O	4.1296443	1.3543213	-2.2145717
C	2.6201023	4.7421802	0.4404954
H	2.4316658	5.6003845	-0.2241159
H	3.0025955	3.8344830	-0.0530028
O	2.4179062	4.7937360	1.6472255
C	-1.9188763	3.0047791	-3.2339199
H	-1.1104031	3.0218344	-2.4857145
H	-2.8500891	3.5139728	-2.9384193
O	-1.7909987	2.4564443	-4.3214470
C	1.8565045	5.2735524	-1.4410707
H	1.0928658	4.8623760	-0.7617170
H	1.8876877	6.3726079	-1.5107877
O	2.6197176	4.5568087	-2.0763053
C	4.2565614	-1.0381150	2.4633659
H	5.1576650	-0.4703937	2.1815218
H	3.7958839	-0.7521681	3.4224104
O	3.7976321	-1.9276220	1.7577455
C	1.2868659	-2.6252692	-3.3243043
H	1.5409872	-3.0779804	-2.3526016
H	1.9755288	-2.8593479	-4.1517743
O	0.3045051	-1.9096474	-3.4746088
C	-1.6123374	2.3439085	-3.1678698
H	-1.9125893	1.6736527	-2.3466892
H	-0.5752181	2.7130255	-3.1243729
O	-2.3801269	2.6576965	-4.0688556
C	1.8713615	-4.2391520	-1.7627887
H	1.0784200	-3.8128994	-2.3978349
H	1.7792338	-5.3154859	-1.5465167
O	2.7935944	-3.5617933	-1.3264281
C	2.9410060	0.6069847	3.7896906
H	3.9257429	0.4853352	4.2684659
H	2.9069097	0.3855276	2.7110108
O	1.9504467	0.9644919	4.4147664
C	0.5606897	5.0298223	2.1664683
H	1.0226295	5.9068905	2.6471912
H	1.2623386	4.2568482	1.8143950
O	-0.6517459	4.9213426	2.0324127
C	1.8944302	-1.7315653	-2.9225696
H	1.3936282	-0.7523210	-2.9858860
H	2.9745354	-1.6994669	-2.7078642
O	1.2908209	-2.7853740	-3.0803094
C	0.6026254	-2.3305848	-3.5539531
H	1.5786541	-2.6516632	-3.1564510
H	0.4555945	-2.4863134	-4.6346410
O	-0.2611855	-1.8337615	-2.8420990
C	5.5692892	0.0337111	1.5293286
H	6.0321886	0.5615869	2.3783296
H	6.0059589	-0.9479254	1.2854739
O	4.6319533	0.5065067	0.8987697
C	-0.2336056	-0.7194644	3.3929196
H	-1.0920687	-0.0461773	3.2397632
H	0.5618860	-0.3326919	4.0496966
O	-0.1679769	-1.8240299	2.8681656
C	2.6486141	4.0747223	2.2870918
H	2.0158116	3.1793542	2.1793504
H	3.7330790	3.9034939	2.1955885
O	2.1780057	5.1861025	2.4946985
C	-1.8138574	0.3591752	3.6850504
H	-1.9041268	1.4000664	3.3355818
H	-1.3785270	-0.3485061	2.9615655
O	-2.1733974	0.0119619	4.8030454
C	2.4474080	4.3903046	-2.2027352
H	1.8905817	3.4427743	-2.1261700
H	2.8932938	4.7561702	-1.2640744
O	2.5630169	4.9963985	-3.2605743
C	2.8337728	-4.0246424	-0.0544002
H	3.9219150	-4.1739826	-0.1402799
H	2.2845815	-3.9751384	-1.0081792
O	2.2721811	-3.9206159	1.0288966
C	4.4556876	2.9522979	1.7199480
H	3.9547531	3.7133626	1.1006124
H	5.4578873	3.2241454	2.0879843
O	3.9333911	1.8760199	1.9818079
C	1.5464687	-4.7199455	-0.6532706
H	1.1529472	-5.0798582	-1.6172907
H	2.3696232	-3.9906600	-0.7189612
O	1.0988084	-5.1048136	0.4196767
C	-3.4665118	2.2798543	-1.1056796
H	-2.8203728	2.4336661	-0.2267155
H	-3.0816186	1.5756898	-1.8605076
O	-4.5408311	2.8533023	-1.2350403
C	3.3545307	3.5699987	-2.1614182
H	4.2777094	4.1700308	-2.1992810
H	3.4988318	2.4828781	-2.0560525
O	2.2422297	4.0775209	-2.2317511
C	3.6690623	-2.2274739	2.5201389
H	4.0374774	-1.3894852	1.9071327
H	4.3159275	-2.5197204	3.3627024
O	2.6111607	-2.7961354	2.2809589
C	-0.4462064	1.7865050	3.0786633
H	0.2298595	2.5468713	3.5011671
H	0.0070392	0.8001421	2.8904810
O	-1.6229301	2.0219729	2.8345016
C	0.3773057	-2.6134789	-2.6973281
H	-0.6633824	-2.4217542	-3.0038263
H	0.5488181	-3.5642164	-2.1677645
O	1.2829817	-1.8226131	-2.9297528
C	-4.8111273	-0.9545886	-1.3052926
H	-4.8536134	-1.0171214	-2.4043903
H	-3.9008177	-0.4927210	-0.8908402
O	-5.7153754	-1.3706811	-0.5918914
C	-3.4458149	0.3754077	2.2139216
H	-3.7478637	-0.2384533	1.3503984
H	-2.5329679	0.0453486	2.7350044
O	-4.0822431	1.3589586	2.5707491
C	2.9096968	0.9722867	3.3053116
H	1.8578215	0.8757571	2.9923077
H	3.1222394	1.7927427	4.0091821
O	3.7842765	0.2179759	2.8980472
C	2.6617611	3.7863634	-2.0895852
H	2.0679614	3.1664795	-2.7801483
H	3.6524799	4.0942068	-2.4603475
O	2.2481921	4.1115137	-0.9837024
C	3.4516537	4.0785034	0.9664605
H	2.4467820	4.0842728	0.5148736
H	3.5189126	4.5037816	1.9805466
O	4.4286377	3.6293616	0.3803608
C	1.9075214	4.9165907	1.3913996
H	1.7596128	4.0637426	2.0729454
H	1.5724060	4.7588690	0.3538171
O	2.4108194	5.9695921	1.7623685
C	-2.1790961	-4.1019740	0.0963555
H	-2.0952748	-4.3048044	1.1759689
H	-1.2946718	-3.6391760	-0.3698716
O	-3.1879816	-4.3728515	-0.5427957
C	0.7925808	4.0516895	-2.7258595
H	1.5959790	3.4023407	-2.3429381
H	1.0584807	5.1137378	-2.8487686
O	-0.3216115	3.6216794	-2.9967942
C	-3.5204666	1.2636483	2.8524832
H	-3.8307214	2.3066330	3.0246937
H	-4.3058947	0.5046681	2.9967315
O	-2.3787908	0.9677054	2.5227365
C	-0.3002407	2.6130271	-3.2470156
H	-0.3671390	2.2227167	-4.2750786
H	0.7199655	2.8001758	-2.8756524
O	-1.2935599	2.8247251	-2.5627350
C	4.9311515	0.3414258	-0.4751252
H	5.1045425	0.4843752	0.6034072
H	4.6370486	1.2450194	-1.0325998
O	5.0569293	-0.7490452	-1.0180727
C	1.6324618	5.8031105	1.3083172
H	1.7109149	6.4863936	0.4476776
H	1.8322706	6.2549483	2.2930379
O	1.3425170	4.6203344	1.1790436
C	-3.3552319	-1.7152423	-1.8139748
H	-2.6118569	-2.2711808	-1.2206307
H	-4.3956688	-2.0650715	-1.7198131
O	-3.0457151	-0.7714461	-2.5303456
C	5.4452612	-0.5021428	-0.4221055
H	4.5693306	-0.1314189	0.1338086
H	5.2207156	-1.1453155	-1.2879370
O	6.5919426	-0.2182633	-0.0991917
C	3.0596011	-1.2215051	3.0267037
H	3.0731459	-2.1250651	2.3965235
H	3.4153055	-1.3582091	4.0604069
O	2.6748556	-0.1375621	2.6062545
C	4.5821633	1.6815247	-2.6589470
H	5.5859781	1.7202722	-3.1112583
H	3.7418536	1.8384104	-3.3539452
O	4.4117774	1.4776773	-1.4634748
C	-1.5551549	3.9842677	-2.8150044
H	-2.4051739	4.6155469	-3.1194474
H	-0.5779990	4.2675556	-3.2376987
O	-1.6876123	3.0313044	-2.0573404
C	5.1017904	2.0399525	-0.2848994
H	4.4393404	1.9789155	-1.1630599
H	4.6022682	2.2587484	0.6723684
O	6.3125447	1.8755708	-0.3673112
C	2.3317307	-0.0950755	-3.2688178
H	3.1166775	0.0574337	-2.5109716
H	2.2989079	-1.0981897	-3.7231749
O	1.5480228	0.7912279	-3.5850567
C	-3.6565363	0.4150658	3.3040597
H	-4.1970591	-0.4980712	3.6002812
H	-3.8289180	1.2967969	3.9417044
O	-2.9136983	0.4478057	2.3309931
C	1.7709150	0.4408899	3.1121620
H	0.7777204	0.7323112	3.4894806
H	2.4696863	1.2715160	2.9236551
O	2.0777144	-0.7282576	2.9154209
C	5.4850117	0.4937244	0.6526641
H	6.3557053	1.1592466	0.7653759
H	5.3112630	-0.2060136	1.4856912
O	4.7587973	0.5293660	-0.3327705
C	-1.0406151	-3.1289004	-2.5553521
H	-1.8573678	-3.0205797	-3.2867293
H	-1.3443689	-3.1004700	-1.4967297
O	0.1269359	-3.2713955	-2.8963193
C	-3.9871318	-0.8257984	2.1128276
H	-3.1702958	-0.6059552	2.8186458
H	-4.9647419	-1.0446032	2.5712586
O	-3.8196248	-0.8268818	0.8996998
C	-1.7923511	-3.6794234	-0.7023389
H	-2.0244862	-3.2250400	-1.6787509
H	-1.4761845	-4.7343510	-0.7327093
O	-1.8799031	-3.0536804	0.3467174
C	3.2848783	3.2557784	2.9585492
H	3.3025369	3.6596404	3.9833981
H	4.0410133	3.6692225	2.2721967
O	2.4786082	2.4041594	2.6058279
C	1.1375243	0.3686711	3.3630920
H	2.0940287	-0.1779786	3.3652646
H	0.2713245	-0.1885287	3.7542212
O	1.0434130	1.5188624	2.9532848
C	-2.5991014	2.4619796	-2.4898646
H	-2.9857656	3.4843939	-2.6273103
H	-1.5045247	2.3766213	-2.3983690
O	-3.3367200	1.4855757	-2.4419810
C	-0.4625819	-2.8118056	-3.7893153
H	0.3566809	-3.2138264	-4.4065016
H	-1.4785377	-2.9798940	-4.1808967
O	-0.2576479	-2.2177624	-2.7381950
C	-2.4768120	-0.1072084	2.6501654
H	-3.4164878	-0.3493754	2.1285373
H	-1.9422989	-0.9651355	3.0883579
O	-2.0546259	1.0390631	2.7371102
C	-1.7812582	4.4108195	-1.2959052
H	-2.2127287	3.4522466	-0.9662041
H	-2.4931509	5.2471614	-1.3824897
O	-0.5898975	4.5381984	-1.5492293
C	3.8361215	2.7934430	1.4169524
H	4.6542319	2.7315807	0.6816975
H	3.0611765	3.5466539	1.2027343
O	3.7911286	2.0730764	2.4062888
C	-4.3489962	-2.1774652	1.2505152
H	-5.2253046	-1.8024012	1.8029118
H	-4.1456052	-3.2549061	1.3577962
O	-3.6478210	-1.4456152	0.5631379
C	-2.9761510	-0.2313835	2.9279064
H	-3.3347335	-1.2478147	2.6998329
H	-3.1253174	0.5146612	2.1310860
O	-2.4470867	0.0503706	3.9958225
C	-1.7227635	0.5931490	3.3511871
H	-1.1715001	1.5055692	3.0731054
H	-1.4772012	0.1726944	4.3394548
O	-2.5530451	0.0805197	2.6111990
C	-2.1420125	-3.6350517	-0.5822548
H	-3.0525007	-3.8364740	-1.1689162
H	-2.2992025	-3.4644535	0.4947519
O	-1.0295051	-3.6029326	-1.0931701
C	1.1851615	4.1169750	-3.0987229
H	2.2364266	3.8822531	-2.8674680
H	0.9809937	4.4020900	-4.1431274
O	0.3024908	4.0644685	-2.2514483
C	2.5324180	-0.1035214	-3.7624164
H	1.8831413	0.0921132	-4.6306895
H	3.4776082	0.4620217	-3.7393467
O	2.2240946	-0.8966491	-2.8817211
C	-2.2147580	-2.9293469	1.5849425
H	-1.9252416	-3.4859737	2.4905240
H	-1.6811247	-3.2114644	0.6633128
O	-3.0724641	-2.0553902	1.6016474
C	1.9154729	0.9686680	3.6471363
H	1.8449230	1.7858955	2.9116820
H	2.5205700	0.1017940	3.3370668
O	1.3584931	1.0203845	4.7365571
C	1.5354205	5.2890830	-2.1708172
H	1.3566602	4.9887685	-3.2156077
H	1.6819330	6.3684118	-2.0054708
O	1.5690228	4.4773773	-1.2544418
C	2.0058491	-0.2345252	-3.5263646
H	1.3341091	0.4099576	-4.1155494
H	1.5191191	-1.0683424	-2.9957058
O	3.2129548	-0.0372570	-3.4653736
C	-1.3483766	3.2092037	3.6094946
H	-0.8263717	2.9222770	4.5362713
H	-2.0154131	4.0822230	3.6910762
O	-1.1972653	2.5985180	2.5587961

1  2  1.0  3  1.0  6  1.0  
2  
3  4  1.0  5  1.0  
4  
5  
6  7  1.0  
7  
8  9  1.0  10  1.0  11  1.0  
9  
10  
11  
12  13  1.0  14  1.0  15  1.0  
13  
14  
15  
16  17  1.0  18  1.0  19  1.0  
17  
18  
19  
20  21  1.0  22  1.0  23  1.0  
21  
22  
23  
24  25  1.0  26  1.0  27  1.0  
25  
26  
27  
28  29  1.0  30  1.0  31  1.0  
29  
30  
31  
32  33  1.0  34  1.0  35  1.0  
33  
34  
35  
36  37  1.0  38  1.0  39  1.0  
37  
38  
39  
40  41  1.0  42  1.0  43  1.0  
41  
42  
43  
44  45  1.0  46  1.0  47  1.0  
45  
46  
47  
48  49  1.0  50  1.0  51  1.0  
49  
50  
51  
52  53  1.0  54  1.0  55  1.0  
53  
54  
55  
56  57  1.0  58  1.0  59  1.0  
57  
58  
59  
60  61  1.0  62  1.0  63  1.0  
61  
62  
63  
64  65  1.0  66  1.0  67  1.0  
65  
66  
67  
68  69  1.0  70  1.0  71  1.0  
69  
70  
71  
72  73  1.0  74  1.0  75  1.0  
73  
74  
75  
76  77  1.0  78  1.0  79  1.0  
77  
78  
79  
80  81  1.0  82  1.0  83  1.0  
81  
82  
83  
84  85  1.0  86  1.0  87  1.0  
85  
86  
87  
88  89  1.0  90  1.0  91  1.0  
89  
90  
91  
92  93  1.0  94  1.0  95  1.0  
93  
94  
95  
96  97  1.0  98  1.0  99  1.0  
97  
98  
99  
100  101  1.0  102  1.0  103  1.0  
101  
102  
103  
104  105  1.0  106  1.0  107  1.0  
105  
106  
107  
108  109  1.0  110  1.0  111  1.0  
109  
110  
111  
112  113  1.0  114  1.0  115  1.0  
113  
114  
115  
116  117  1.0  118  1.0  119  1.0  
117  
118  
119  
120  121  1.0  122  1.0  123  1.0  
121  
122  
123  
124  125  1.0  126  1.0  127  1.0  
125  
126  
127  
128  129  1.0  130  1.0  131  1.0  
129  
130  
131  
132  133  1.0  134  1.0  135  1.0  
133  
134  
135  
136  137  1.0  138  1.0  139  1.0  
137  
138  
139  
140  141  1.0  142  1.0  143  1.0  
141  
142  
143  
144  145  1.0  146  1.0  147  1.0  
145  
146  
147  
148  149  1.0  150  1.0  151  1.0  
149  
150  
151  
152  153  1.0  154  1.0  155  1.0  
153  
154  
155  
156  157  1.0  158  1.0  159  1.0  
157  
158  
159  
160  161  1.0  162  1.0  163  1.0  
161  
162  
163  
164  165  1.0  166  1.0  167  1.0  
165  
166  
167  
168  169  1.0  170  1.0  171  1.0  
169  
170  
171  
172  173  1.0  174  1.0  175  1.0  
173  
174  
175  
176  177  1.0  178  1.0  179  1.0  
177  
178  
179  
180  181  1.0  182  1.0  183  1.0  
181  
182  
183  
184  185  1.0  186  1.0  187  1.0  
185  
186  
187  
188  189  1.0  190  1.0  191  1.0  
189  
190  
191  
192  193  1.0  194  1.0  195  1.0  
193  
194  
195  
196  197  1.0  198  1.0  199  1.0  
197  
198  
199  
200  201  1.0  202  1.0  203  1.0  
201  
202  
203  
204  205  1.0  206  1.0  207  1.0  
205  
206  
207  
208  209  1.0  210  1.0  211  1.0  
209  
210  
211  
212  213  1.0  214  1.0  215  1.0  
213  
214  
215  
216  217  1.0  218  1.0  219  1.0  
217  
218  
219  
220  221  1.0  222  1.0  223  1.0  
221  
222  
223  
224  225  1.0  226  1.0  227  1.0  
225  
226  
227  
228  229  1.0  230  1.0  231  1.0  
229  
230  
231  
232  233  1.0  234  1.0  235  1.0  
233  
234  
235  
236  237  1.0  238  1.0  239  1.0  
237  
238  
239  
240  241  1.0  242  1.0  243  1.0  
241  
242  
243  
244  245  1.0  246  1.0  247  1.0  
245  
246  
247  
248  249  1.0  250  1.0  251  1.0  
249  
250  
251  
252  253  1.0  254  1.0  255  1.0  
253  
254  
255  
256  257  1.0  258  1.0  259  1.0  
257  
258  
259  
260  261  1.0  262  1.0  263  1.0  
261  
262  
263  
264  265  1.0  266  1.0  267  1.0  
265  
266  
267  
268  269  1.0  270  1.0  271  1.0  
269  
270  
271  
272  273  1.0  274  1.0  275  1.0  
273  
274  
275  
276  277  1.0  278  1.0  279  1.0  
277  
278  
279  
280  281  1.0  282  1.0  283  1.0  
281  
282  
283  
284  285  1.0  286  1.0  287  1.0  
285  
286  
287  
288  289  1.0  290  1.0  291  1.0  
289  
290  
291  
292  293  1.0  294  1.0  295  1.0  
293  
294  
295  
296  297  1.0  298  1.0  299  1.0  
297  
298  
299  
300  301  1.0  302  1.0  303  1.0  
301  
302  
303  
304  305  1.0  306  1.0  307  1.0  
305  
306  
307  
308  309  1.0  310  1.0  311  1.0  
309  
310  
311  
312  313  1.0  314  1.0  315  1.0  
313  
314  
315  
316  317  1.0  318  1.0  319  1.0  
317  
318  
319  
320  321  1.0  322  1.0  323  1.0  
321  
322  
323  
324  325  1.0  326  1.0  327  1.0  
325  
326  
327  
328  329  1.0  330  1.0  331  1.0  
329  
330  
331  
332  333  1.0  334  1.0  335  1.0  
333  
334  
335  
336  337  1.0  338  1.0  339  1.0  
337  
338  
339  
340  341  1.0  342  1.0  343  1.0  
341  
342  
343  
344  345  1.0  346  1.0  347  1.0  
345  
346  
347  
348  349  1.0  350  1.0  351  1.0  
349  
350  
351  
352  353  1.0  354  1.0  355  1.0  
353  
354  
355  
356  357  1.0  358  1.0  359  1.0  
357  
358  
359  
360  361  1.0  362  1.0  363  1.0  
361  
362  
363  
364  365  1.0  366  1.0  367  1.0  
365  
366  
367  
368  369  1.0  370  1.0  371  1.0  
369  
370  
371  
372  373  1.0  374  1.0  375  1.0  
373  
374  
375  
376  377  1.0  378  1.0  379  1.0  
377  
378  
379  
380  381  1.0  382  1.0  383  1.0  
381  
382  
383  
384  385  1.0  386  1.0  387  1.0  
385  
386  
387  
388  389  1.0  390  1.0  391  1.0  
389  
390  
391  
392  393  1.0  394  1.0  395  1.0  
393  
394  
395  
396  397  1.0  398  1.0  399  1.0  
397  
398  
399  
400  401  1.0  402  1.0  403  1.0  
401  
402  
403  
404  405  1.0  406  1.0  407  1.0  
405  
406  
407  
