# ================================================================
# # NWChem input file made by LiTao for Molecule Recognization
# ================================================================

charge 0

geometry
 C 0.0680787 0.0460592 0.0170798
 H -0.8106016 -0.5484193 -0.2033659
 C 0.0518473 1.3695752 0.1781655
 H -0.8807503 1.9182974 0.0901907
 H 0.9475987 1.9385653 0.3983070
 O 1.1875178 -0.7290103 0.1082734
 H 1.9483083 -0.1559847 0.3063405
 C 3.2563871 -0.1958447 3.4145811
 H 3.5405808 -1.1816550 3.8160079
 H 3.8736174 0.1727640 2.5797695
 O 2.3171218 0.4472786 3.8661473
end

basis
 * library 6-31g
end

dft
  xc b3lyp
  mult 1
end

task dft energy
