# ================================================================
# # NWChem input file made by LiTao for Molecule Recognization
# ================================================================

charge 0

geometry
 C -1.2595613 -0.2791649 -0.5006109
 H -1.3449173 -0.0377847 -1.5521708
 C -2.2536451 -0.7862690 0.2254602
 H -3.2235125 -0.9871989 -0.2148572
 H -2.1127138 -1.0098876 1.2778279
 O -0.0338862 -0.0215522 0.0414284
 H 0.5377982 0.3420484 -0.6574991
 C 3.4084262 -1.4857128 -0.8661068
 H 3.3755026 -2.4683844 -0.3691119
 H 3.6454380 -1.5054083 -1.9418360
 O 3.1957701 -0.4412569 -0.2630910
end

basis
 * library 6-31g
end

dft
  xc b3lyp
  mult 1
end

task dft energy
