# ================================================================
# # NWChem input file made by LiTao for Molecule Recognization
# ================================================================

charge 0

geometry
 C -0.0819989 0.0063171 0.0168571
 H 0.9763465 -0.0752162 -0.2007148
 C -0.5733764 0.4412824 1.1775723
 H 0.0982570 0.7405818 1.9762602
 H -1.6381023 0.5122827 1.3670458
 O -0.8436208 -0.3910198 -1.0434487
 H -1.7822909 -0.3013723 -0.8041732
 C 2.0945123 -0.0000009 -0.0000006
 H 1.5068620 -0.8619738 -0.3541208
 H 1.5068647 0.8619849 0.3541274
 O 3.3191506 -0.0000000 -0.0000000
end

basis
 * library 6-31g
end

dft
  xc b3lyp
  mult 1
end

task dft energy
