# ================================================================
# # NWChem input file made by LiTao for Molecule Recognization
# ================================================================

charge 0

geometry
 C -0.8071819 -1.0839494 0.2991349
 H -0.8740257 -1.8130865 -0.4995961
 C -1.4356066 -1.2000668 1.4693937
 H -2.0609796 -2.0646849 1.6691884
 H -1.3500595 -0.4539140 2.2507517
 O -0.0018054 -0.0371550 -0.0440606
 H 0.0286530 0.5896772 0.6992729
 C 3.4611855 -0.7949718 -0.7055140
 H 2.5743727 -1.1202830 -0.1385334
 H 3.6583125 -1.3485817 -1.6374008
 O 4.1798332 0.1208470 -0.3253033
end

basis
 * library 6-31g
end

dft
  xc b3lyp
  mult 1
end

task dft energy
