# ================================================================
# # NWChem input file made by LiTao for Molecule Recognization
# ================================================================

charge 0

geometry
 C -1.1856897 1.9118954 1.2358041
 O -2.4049482 2.0050086 1.1243693
 H -0.5604766 2.8179834 1.1483411
 C -0.4049877 0.6288380 1.4003405
 Cl -1.3989333 -0.5765540 2.2648775
 H 0.4608492 0.8348484 2.0377718
 C 0.0262594 0.0824271 0.0359042
 H -0.8433566 -0.1008455 -0.6066692
 H 0.5306899 -0.8806002 0.1791635
 N 0.9579560 0.9678372 -0.6791098
 H 0.4329109 1.6992991 -1.1635731
 H 1.4009029 0.4344601 -1.4313913
 O 4.5558398 -0.9215277 2.2154158
 H 3.7969935 -0.4591139 2.6101123
 C 4.0428249 -2.0379161 1.5120057
 H 4.8726873 -2.5816762 1.0545424
 H 3.3599809 -1.6951057 0.7307848
 H 3.5170030 -2.6973131 2.2068708
end

basis
 * library 6-31g
end

dft
  xc b3lyp
  mult 1
end

task dft energy
