# ================================================================
# # NWChem input file made by LiTao for Molecule Recognization
# ================================================================

charge 0

geometry
 C 0.6079168 1.1842658 0.3793713
 H 0.0931231 2.0715233 0.0303133
 C 1.7244838 1.2079555 1.1078103
 H 2.1735389 2.1561096 1.3869645
 H 2.2180269 0.3032580 1.4432507
 O -0.0293368 0.0455164 -0.0198165
 H 0.4655966 -0.7223788 0.3145019
 C 4.8135183 4.0004180 1.6369981
 H 4.3453141 4.0826811 0.6431426
 H 4.1975773 4.3469268 2.4821633
 O 5.9431750 3.5536458 1.7919473
end

basis
 * library 6-31g
end

dft
  xc b3lyp
  mult 1
end

task dft energy
