# ================================================================
# # NWChem input file made by LiTao for Molecule Recognization
# ================================================================

charge 0

geometry
 C 0.8667150 1.0685703 0.1514380
 H 1.1594402 1.5302543 -0.7841046
 C 1.2899856 1.4756990 1.3485156
 H 1.9700584 2.3180704 1.4290451
 H 0.9799783 0.9939807 2.2685295
 O 0.0139401 0.0226627 -0.0511583
 H -0.2212392 -0.3596727 0.8119184
 C 2.7982129 -1.0897446 -0.0862714
 H 2.6844108 -1.7766276 0.7675273
 H 2.9193821 -1.5709438 -1.0698980
 O 2.7905361 0.1273767 0.0489902
end

basis
 * library 6-31g
end

dft
  xc b3lyp
  mult 1
end

task dft energy
