# ================================================================
# # NWChem input file made by LiTao for Molecule Recognization
# ================================================================

charge 0

geometry
 C 0.6692082 -1.0952647 0.5940646
 H 0.8101564 -2.0536527 0.1085688
 C 0.0385634 -0.0618281 0.0353137
 H -0.3716234 -0.1498295 -0.9659736
 H -0.0875450 0.8860063 0.5454992
 O 1.2168139 -1.0813279 1.8439153
 H 1.0671244 -0.2055954 2.2402444
 C 3.3545630 -0.7822507 0.9322486
 H 2.9420490 -1.2052687 0.0023995
 H 3.1794279 0.2950323 1.0823983
 O 3.9668821 -1.4639697 1.7446914
end

basis
 * library 6-31g
end

dft
  xc b3lyp
  mult 1
end

task dft energy
