# ================================================================
# # NWChem input file made by LiTao for Molecule Recognization
# ================================================================

charge 0

geometry
 C -0.3491215 0.4013217 1.2778990
 H 0.4998826 0.6021528 1.9205023
 C -1.6202334 0.5229957 1.6617953
 H -1.8566439 0.8404290 2.6726959
 H -2.4500175 0.3149860 0.9963833
 O 0.0469046 0.0100024 0.0320156
 H -0.7444104 -0.1587459 -0.5081099
 C 3.5928857 -0.6985908 -0.0687080
 H 2.8935023 -0.3371773 -0.8394053
 H 4.5817141 -0.2129048 -0.0595679
 O 3.2913038 -1.5812497 0.7248287
end

basis
 * library 6-31g
end

dft
  xc b3lyp
  mult 1
end

task dft energy
