# ================================================================
# # NWChem input file made by LiTao for Molecule Recognization
# ================================================================

charge 0

geometry
 C 1.4610485 2.5145774 0.9768097
 O 1.1854997 3.7049536 0.8553350
 H 2.2231674 2.0624253 0.3178180
 C 0.7833479 1.5374029 1.9088269
 Cl 0.2017488 2.3940657 3.3635410
 H 1.5318792 0.8150857 2.2499883
 C -0.3819542 0.8387630 1.2015797
 H -1.1176014 1.5683134 0.8419952
 H -0.8966354 0.1873126 1.9178971
 N 0.0406327 0.0027607 0.0676595
 H 0.1641146 0.5870020 -0.7622970
 H -0.7286793 -0.6253597 -0.1777878
 O 3.5234858 -1.5077127 2.0918828
 H 4.1870148 -2.0397222 2.5632158
 C 3.3723356 -2.0765210 0.8042867
 H 2.6307494 -1.5002859 0.2460554
 H 3.0310805 -3.1102525 0.8993923
 H 4.3284745 -2.0442841 0.2761866
end

basis
 * library 6-31g
end

dft
  xc b3lyp
  mult 1
end

task dft energy
